NAME: instance_1598
TYPE: TSP
DIMENSION: 20
EDGE_WEIGHT_TYPE: EUC_2D
NODE_COORD_SECTION
0 64.67 67.13
1 17.81 75.66
2 19.38 52.20
3 46.39 6.93
4 5.90 66.56
5 99.62 83.51
6 31.39 5.42
7 82.89 11.85
8 36.16 26.52
9 3.52 73.36
10 35.03 12.78
11 41.40 90.71
12 46.31 82.82
13 76.19 45.55
14 54.97 2.33
15 89.96 48.01
16 59.47 49.02
17 87.69 22.19
18 35.93 29.67
19 7.30 86.82
EOF
